service_id,date,exception_type
850,20131224,2
850,20131225,2
850,20131231,2
850,20140101,2
81,20131208,1
840,20131209,1
840,20131211,2
840,20131212,2
840,20131213,2
839,20140203,2
839,20140204,2
839,20140205,2
839,20140206,2
839,20140207,2
839,20140201,2
839,20140202,2
844,20131225,1
844,20140101,1
833,20131225,2
833,20140101,2
29,20131208,1
145,20131225,1
145,20140101,1
828,20131225,1
828,20140101,1
843,20131225,2
843,20140101,2
841,20131225,2
841,20140101,2
842,20131209,1
847,20140117,1
1,20131208,1
848,20140117,2
862,20131225,1
862,20140101,1
872,20131225,1
872,20140101,1
870,20131225,1
870,20140101,1
866,20131208,1
864,20140209,2
861,20131225,2
861,20140101,2
868,20131225,2
868,20140101,2
863,20140209,2
858,20131225,2
858,20140101,2
855,20140204,2
855,20140205,2
855,20140206,2
855,20140207,2
107,20131225,2
107,20140101,2
923,20131225,1
923,20140101,1
923,20140209,2
1509,20140202,2
1508,20140202,1
1500,20131208,1
117,20131225,2
117,20140101,2
1496,20131208,1
1507,20131208,1
1499,20131227,1
1499,20131220,1
1518,20131213,1
1519,20131208,1
284,20131206,1
357,20131220,1
1517,20131227,1
1517,20140103,1
1513,20131208,1
1510,20131217,1
1510,20131218,1
1510,20131223,1
1510,20131226,1
1510,20131230,1
1510,20140102,1
1235,20131225,2
1235,20140101,2
5831,20131223,1
5831,20131226,1
5831,20131230,1
5831,20140102,1
5827,20131208,1
5828,20131208,1
106,20131208,1
1523,20131225,2
1523,20140101,2
110,20131209,1
827,20131224,1
827,20131231,1
1540,20131228,1
1540,20131221,1
1552,20131225,2
1552,20140101,2
1548,20131225,1
1548,20140101,1
1548,20140112,2
1548,20140209,2
1555,20131225,1
1555,20140101,1
1141,20131225,2
1141,20140101,2
1558,20131225,1
1558,20140101,1
1558,20140111,2
1558,20140208,2
1026,20131213,1
1554,20131225,1
1554,20140101,1
1549,20131225,1
1549,20140101,1
1547,20131205,2
1547,20131206,2
467,20140101,1
130,20131225,1
1603,20140221,1
1619,20131215,1
1619,20131220,1
1619,20131221,1
1619,20131222,1
1619,20131227,1
1619,20131228,1
1619,20131229,1
1619,20140103,1
1619,20140104,1
1619,20140105,1
1619,20140110,1
1619,20140111,1
1619,20140112,1
1619,20140117,1
1619,20140118,1
1619,20140119,1
1604,20140228,1
1637,20131208,1
1585,20140101,1
1585,20140102,1
1585,20131226,1
1585,20140301,1
1576,20131208,1
1640,20140214,2
1640,20140221,2
220,20131208,1
319,20131224,1
769,20131221,1
1614,20140214,2
1614,20140221,2
1614,20140228,2
1584,20131208,1
1568,20140226,2
1568,20140227,2
1568,20140228,2
1632,20131222,1
1632,20131229,1
1632,20140105,1
1632,20140112,1
1632,20131215,1
1635,20131222,1
1635,20131229,1
1635,20140105,1
1635,20140112,1
1635,20131215,1
1571,20140217,2
1571,20140218,2
1571,20140219,2
1571,20140220,2
1571,20140221,2
1571,20140224,2
1571,20140225,2
1571,20140226,2
1571,20140227,2
1571,20140228,2
1459,20131214,1
1573,20131207,1
1658,20131224,1
1658,20131231,1
1658,20140217,2
1658,20140221,2
1658,20140224,2
1658,20140228,2
354,20131208,1
477,20140201,1
1578,20140120,2
1578,20140127,2
1578,20140203,2
1578,20140210,2
223,20131215,1
1646,20140201,1
1648,20131207,1
36,20131214,1
1650,20131209,1
1651,20131224,1
1651,20131227,2
1651,20131228,2
1651,20131229,2
1652,20131231,1
1655,20140303,1
1595,20140303,1
1595,20140304,1
1589,20131208,1
1662,20140303,1
1662,20140304,1
1664,20140127,1
1667,20131213,1
1659,20131224,2
1025,20131206,1
1661,20140203,1
1668,20140203,2
1670,20131216,1
1670,20131217,1
1670,20131218,1
1670,20131219,1
1670,20131220,1
1670,20131221,1
1670,20131222,1
1670,20131223,1
1670,20131225,1
1670,20131226,1
1670,20131227,1
1670,20131228,1
1670,20131229,1
1670,20140301,1
1670,20140302,1
1670,20131230,1
1670,20131215,1
1670,20140303,1
1670,20140304,1
1676,20131224,2
1700,20131209,1
1700,20131210,1
1701,20131224,2
1689,20131224,2
1697,20140301,1
1707,20140302,1
1708,20131206,1
1725,20131225,1
1725,20140101,1
1714,20131225,1
1714,20140101,1
1715,20140102,1
362,20131208,1
1713,20131225,2
1713,20140101,2
1713,20140102,2
1731,20131225,1
1731,20140101,1
1721,20140126,1
1717,20131225,1
1717,20140101,1
102,20131216,1
1716,20131218,1
1716,20131217,1
1716,20131219,1
1716,20131223,1
1716,20131224,1
1716,20131226,1
1716,20131230,1
1716,20131231,1
1716,20140102,1
1723,20131215,1
1723,20131220,1
1723,20131222,1
1723,20131225,1
1723,20131227,1
1723,20131229,1
1723,20140101,1
1723,20140103,1
1723,20140105,1
1723,20140126,2
1732,20131225,2
1732,20140101,2
5833,20140202,2
5833,20140209,2
5833,20140216,2
5833,20140223,2
1740,20140303,1
1740,20140304,1
1740,20140224,2
1740,20140225,2
1740,20140227,2
1740,20131225,2
1740,20140101,2
1742,20131224,1
1742,20131231,1
1739,20131224,2
1739,20131231,2
1746,20131224,1
1746,20131225,1
1746,20131231,1
1746,20140101,1
1745,20140224,2
1745,20140225,2
1745,20131225,2
1745,20140101,2
1745,20140303,2
1738,20140301,1
1738,20140302,1
1738,20131215,1
1738,20131216,1
1738,20131217,1
1738,20131218,1
1738,20131219,1
1738,20131220,1
1738,20131221,1
1738,20131222,1
1738,20131223,1
1738,20131224,1
1738,20131225,1
1738,20131226,1
1738,20131227,1
1738,20131228,1
1738,20131229,1
1738,20131230,1
1738,20131231,1
1738,20140101,1
1738,20140103,1
1738,20140104,1
1738,20140105,1
1738,20140110,1
1738,20140111,1
1738,20140112,1
1738,20140117,1
1738,20140118,1
1738,20140119,1
1738,20140102,2
1737,20131208,1
1748,20140303,1
1748,20140304,1
70,20140301,1
1759,20131213,1
438,20131209,1
1768,20140217,1
1760,20131226,1
1760,20131228,1
1760,20140102,1
1760,20140104,1
1760,20131221,1
1760,20140215,1
1772,20131228,1
1772,20140104,1
1772,20140215,1
1772,20131221,1
1772,20140218,1
1772,20140219,1
1772,20140220,1
1784,20131215,1
1784,20131222,1
1784,20131225,1
1784,20131229,1
1784,20140101,1
1784,20140105,1
183,20131208,1
1780,20140216,1
1780,20140214,2
1782,20131221,1
1782,20131228,1
1782,20140104,1
1783,20131206,1
1789,20131220,1
1789,20131227,1
1789,20140103,1
1807,20131216,1
1807,20131217,1
1807,20131218,1
1807,20131219,1
1817,20140110,1
1813,20140215,1
1813,20140222,1
1813,20140104,1
1813,20140301,1
1818,20140112,2
1818,20140209,2
69,20140301,1
1790,20131228,1
1790,20140104,1
1790,20140215,1
1790,20131221,1
1790,20140222,1
1791,20140203,1
1791,20140204,1
1791,20140205,1
1791,20140206,1
1791,20140207,1
1791,20140210,1
1791,20140211,1
1791,20140212,1
1791,20140213,1
1791,20140214,1
1791,20140217,1
1791,20140218,1
1791,20140219,1
1791,20140220,1
1791,20140221,1
1791,20140224,1
1791,20140225,1
1791,20140226,1
1791,20140227,1
1791,20131217,1
1791,20131215,1
1791,20131216,1
1791,20131218,1
1791,20131219,1
1791,20131220,1
1791,20131222,1
1791,20131223,1
1791,20131225,1
1791,20131226,1
1791,20131227,1
1791,20131229,1
1791,20131230,1
1791,20140101,1
1791,20140102,1
1791,20140103,1
1791,20140105,1
1794,20140216,1
1794,20140210,2
1794,20140211,2
1794,20140212,2
1794,20140213,2
1794,20140214,2
1794,20140203,2
1794,20140204,2
1794,20140205,2
1794,20140206,2
1794,20140207,2
950,20140131,1
1805,20140112,2
1803,20131228,1
1803,20131221,1
1803,20131227,2
1800,20140104,1
1845,20131227,2
1845,20140103,2
1848,20131215,1
1848,20131221,1
1848,20131222,1
1848,20140111,1
1848,20140112,1
1848,20140119,1
1848,20140118,2
1833,20140118,2
1833,20140125,2
1835,20140201,2
1835,20140202,2
1836,20131220,1
1836,20131223,1
1836,20131224,1
1836,20131226,1
1836,20131227,1
1836,20131230,1
1836,20131231,1
1836,20140102,1
1836,20140103,1
1853,20131223,1
1853,20131224,1
1853,20131226,1
1853,20131230,1
1853,20131231,1
1853,20140102,1
1858,20131208,1
1856,20140210,1
1863,20140210,2
1863,20140211,2
1863,20140212,2
1863,20140213,2
1863,20140214,2
1863,20140101,2
1863,20140102,2
1863,20140103,2
1863,20140104,2
1863,20140105,2
1863,20140204,2
1863,20140205,2
1863,20140206,2
1863,20140207,2
1863,20140208,2
1863,20140209,2
1855,20131208,1
1867,20131223,1
1867,20131224,1
1867,20131225,1
1867,20131226,1
1867,20140101,1
1867,20131215,1
1867,20131220,1
1867,20131221,1
1867,20131222,1
1867,20131227,1
1867,20131228,1
1867,20131229,1
1867,20140103,1
1867,20140104,1
1867,20140105,1
1867,20140110,1
1867,20140112,1
1867,20140117,1
1867,20140119,1
1867,20140124,1
1867,20140126,1
1867,20140131,1
1867,20140202,1
1890,20131224,1
1890,20131225,1
1890,20131226,1
1890,20131227,1
1890,20140102,1
1899,20140203,1
1899,20140204,1
1899,20140205,1
1899,20140206,1
1899,20140207,1
1899,20140208,1
1899,20140209,1
1899,20140210,1
1899,20140211,1
1899,20140212,1
1899,20140213,1
1899,20140214,1
1899,20140215,1
1899,20140106,1
1899,20140107,1
1899,20140108,1
1899,20140109,1
1899,20140110,1
1899,20140112,1
1899,20140113,1
1899,20140114,1
1899,20140115,1
1899,20140116,1
1899,20140117,1
1899,20140119,1
1899,20140120,1
1899,20140121,1
1899,20140122,1
1899,20140123,1
1899,20140124,1
1899,20140126,1
1899,20140127,1
1899,20140128,1
1899,20140129,1
1899,20140130,1
1899,20140131,1
1899,20140202,1
1900,20131208,1
1875,20131208,1
1875,20131207,2
1876,20131215,1
1876,20131216,1
1876,20131217,1
1876,20131218,1
1876,20131219,1
1876,20131220,1
1876,20131221,1
1876,20131222,1
1876,20131223,1
1876,20131224,1
1876,20131225,1
1876,20131226,1
1876,20131227,1
1876,20131228,1
1876,20131229,1
1876,20131230,1
1876,20131231,1
1876,20140101,1
1876,20140102,1
1876,20140103,1
1876,20140104,1
1876,20140105,1
1876,20140106,1
1876,20140107,1
1876,20140108,1
1876,20140109,1
1876,20140110,1
1876,20140112,1
1876,20140113,1
1876,20140114,1
1876,20140115,1
1876,20140116,1
1876,20140117,1
1876,20140119,1
1876,20140120,1
1876,20140121,1
1876,20140122,1
1876,20140123,1
1876,20140124,1
1876,20140126,1
1876,20140127,1
1876,20140128,1
1876,20140129,1
1876,20140130,1
1876,20140131,1
1876,20140202,1
1876,20140203,1
1876,20140210,2
1876,20140211,2
1876,20140212,2
1876,20140213,2
1876,20140214,2
1876,20140204,2
1876,20140205,2
1876,20140206,2
1876,20140207,2
1876,20140209,2
1871,20140101,2
1871,20131223,2
1871,20131224,2
1871,20131225,2
1871,20131226,2
1869,20131208,1
1874,20131215,1
1874,20131220,1
1874,20131222,1
1874,20131225,1
1874,20131227,1
1874,20131229,1
1874,20140101,1
1874,20140103,1
1874,20140105,1
1874,20140202,1
1874,20140216,1
1859,20140210,2
1859,20140211,2
1859,20140212,2
1859,20140213,2
1859,20140214,2
1859,20140204,2
1859,20140205,2
1859,20140206,2
1859,20140207,2
1859,20140208,2
1859,20140209,2
1865,20140203,1
1865,20140215,1
1865,20140216,1
1865,20140222,1
1865,20140223,1
1865,20140301,1
1865,20140302,1
1865,20140303,1
1865,20140304,1
1865,20140208,2
1865,20140209,2
1865,20140210,2
1865,20140211,2
1865,20140212,2
1865,20140213,2
1865,20140214,2
1865,20140217,2
1865,20140218,2
1865,20140219,2
1865,20140220,2
1865,20140221,2
1865,20140224,2
1865,20140225,2
1865,20140226,2
1865,20140227,2
1865,20140228,2
1904,20140203,1
1904,20140204,1
1904,20140205,1
1904,20140206,1
1904,20140207,1
1904,20140208,1
1904,20140209,1
1904,20140210,1
1904,20140211,1
1904,20140212,1
1904,20140213,1
1904,20140214,1
1904,20140215,1
1904,20140216,1
1904,20140217,1
1904,20140218,1
1904,20140219,1
1904,20140220,1
1904,20140221,1
1904,20140222,1
1904,20140223,1
1904,20140106,1
1904,20140107,1
1904,20140108,1
1904,20140109,1
1904,20140110,1
1904,20140112,1
1904,20140113,1
1904,20140114,1
1904,20140115,1
1904,20140116,1
1904,20140117,1
1904,20140119,1
1904,20140120,1
1904,20140121,1
1904,20140122,1
1904,20140123,1
1904,20140124,1
1904,20140126,1
1904,20140127,1
1904,20140128,1
1904,20140129,1
1904,20140130,1
1904,20140131,1
1904,20140202,1
1904,20140224,1
1904,20140225,1
1904,20140226,1
1904,20140227,1
1904,20140228,1
1904,20140303,1
1904,20140304,1
1904,20140302,2
1893,20140102,2
1893,20131224,2
1893,20131225,2
1893,20131226,2
1893,20131227,2
1888,20131208,1
1887,20140203,1
1887,20140204,1
1887,20140205,1
1887,20140206,1
1887,20140207,1
1887,20140208,1
1887,20140209,1
1887,20140210,1
1887,20140211,1
1887,20140212,1
1887,20140213,1
1887,20140214,1
1887,20140215,1
1887,20140216,1
1887,20140106,1
1887,20140107,1
1887,20140108,1
1887,20140109,1
1887,20140110,1
1887,20140111,1
1887,20140113,1
1887,20140114,1
1887,20140115,1
1887,20140116,1
1887,20140117,1
1887,20140118,1
1887,20140120,1
1887,20140121,1
1887,20140122,1
1887,20140123,1
1887,20140124,1
1887,20140125,1
1887,20140127,1
1887,20140128,1
1887,20140129,1
1887,20140130,1
1887,20140131,1
1887,20140201,1
1887,20140303,1
1887,20140304,1
1887,20140222,1
1887,20140223,1
1887,20140301,1
1887,20140302,1
1880,20131223,2
1880,20131224,2
1880,20131225,2
1880,20131226,2
1880,20131230,2
1880,20131231,2
1880,20140101,2
1880,20140102,2
1884,20140216,1
1884,20131223,1
1884,20131226,1
1884,20131230,1
1884,20140214,2
1884,20140103,2
1883,20140102,1
1882,20140207,1
1882,20140214,1
1882,20140103,1
1882,20140221,1
1911,20131228,1
1911,20131221,1
1911,20131220,1
1911,20131227,1
1911,20140103,1
42,20131209,1
1903,20131225,1
1903,20140101,1
1905,20131220,1
1905,20131221,1
1905,20140214,1
1905,20140215,1
1905,20140207,1
1905,20140221,1
1905,20140222,1
1905,20131215,1
1905,20131222,1
1905,20131223,1
1905,20131225,1
1905,20131226,1
1905,20131227,1
1905,20131228,1
1905,20131229,1
1905,20131230,1
1905,20140101,1
1905,20140102,1
1905,20140103,1
1905,20140104,1
1905,20140105,1
1905,20140216,2
1905,20140209,2
1909,20140101,2
1909,20140102,2
1910,20140124,1
2689,20131221,1
2689,20140110,1
2689,20140112,1
2689,20140131,1
2689,20140202,1
2689,20140228,1
2689,20140302,1
2689,20140117,1
2689,20140124,1
2689,20140221,1
2689,20131223,1
2689,20131224,1
2689,20131225,1
2689,20131226,1
2689,20131227,1
2689,20131228,1
2689,20131229,1
2689,20131230,1
2689,20131231,1
2689,20140101,1
2689,20140102,1
2689,20140103,1
2689,20140104,1
2689,20140105,1
2689,20140209,1
2689,20140216,1
8300,20140217,1
8300,20140218,1
8300,20140219,1
8300,20140220,1
8300,20131204,1
8300,20131205,1
8300,20131207,1
8300,20131209,1
8300,20131210,1
8300,20131211,1
8300,20131212,1
8300,20131214,1
8300,20131216,1
8300,20131217,1
8300,20131218,1
8300,20131219,1
8300,20140106,1
8300,20140107,1
8300,20140108,1
8300,20140109,1
8300,20140111,1
8300,20140113,1
8300,20140114,1
8300,20140115,1
8300,20140116,1
8300,20140118,1
8300,20140120,1
8300,20140121,1
8300,20140122,1
8300,20140123,1
8300,20140125,1
8300,20140127,1
8300,20140128,1
8300,20140129,1
8300,20140130,1
8300,20140201,1
8300,20140203,1
8300,20140204,1
8300,20140205,1
8300,20140206,1
8300,20140208,1
8300,20140210,1
8300,20140211,1
8300,20140212,1
8300,20140213,1
8300,20140215,1
8300,20140224,1
8300,20140225,1
8300,20140226,1
8300,20140227,1
8300,20140301,1
8300,20140303,1
8300,20140304,1
8300,20131223,2
8300,20131224,2
8300,20131225,2
8300,20131226,2
8300,20131230,2
8300,20131231,2
8300,20140101,2
8300,20140102,2
8300,20131221,2
8300,20140222,2
2694,20131216,2
2694,20131218,2
2694,20131219,2
2699,20131208,1
1808,20131219,1
816,20140302,1
2741,20140223,1
2737,20140103,1
2737,20140104,2
2727,20140112,1
2728,20140209,1
2738,20140111,2
2738,20140118,2
2740,20140112,2
2740,20140209,2
1088,20140207,1
2708,20140228,1
2300,20140301,1
530,20140216,1
2641,20140111,1
2716,20140227,1
792,20140118,1
2538,20131204,1
2754,20140301,1
2754,20140228,2
2745,20131224,2
2745,20131225,2
2745,20131231,2
2745,20140101,2
2746,20131225,1
2746,20140101,1
2746,20140209,2
2744,20131224,2
2744,20131225,2
2744,20131231,2
2744,20140101,2
2759,20140303,1
2768,20131204,1
2768,20131205,1
2768,20131206,1
2768,20131209,1
2768,20131210,1
2768,20131211,1
2768,20131212,1
2768,20131213,1
2768,20131216,1
2768,20131217,1
2768,20131218,1
2768,20131219,1
2768,20131220,1
2768,20140106,1
2768,20140107,1
2768,20140108,1
2768,20140109,1
2768,20140110,1
2768,20140113,1
2768,20140114,1
2768,20140115,1
2768,20140116,1
2768,20140117,1
2768,20131223,1
2768,20131224,1
2768,20131226,1
2768,20131227,1
2768,20131230,1
2768,20131231,1
2768,20140102,1
2768,20140103,1
2768,20140120,1
2768,20140203,2
2768,20140204,2
2768,20140121,2
2768,20140123,2
2768,20140124,2
2781,20131216,1
2781,20131217,1
2781,20131218,1
2781,20131219,1
2781,20131220,1
2781,20140106,1
2781,20140107,1
2781,20140108,1
2781,20140109,1
2781,20140110,1
2781,20140113,1
2781,20140114,1
2781,20140115,1
2781,20140116,1
2781,20140117,1
2781,20131223,1
2781,20131224,1
2781,20131226,1
2781,20131227,1
2781,20131230,1
2781,20131231,1
2781,20140102,1
2781,20140103,1
2781,20140203,2
2781,20140204,2
2778,20131215,1
2778,20131221,1
2778,20131222,1
2778,20140111,1
2778,20140112,1
2778,20140118,1
2778,20140119,1
2778,20131225,1
2778,20131228,1
2778,20131229,1
2778,20140101,1
2778,20140104,1
2778,20140105,1
2790,20140207,1
2790,20140214,1
2790,20140215,1
2790,20140221,1
2790,20140222,1
2790,20140228,1
2790,20140301,1
2790,20140124,2
2790,20140125,2
2790,20140131,2
2790,20140201,2
2787,20131225,1
2787,20140101,1
2787,20140126,2
2787,20140202,2
2787,20140209,2
2766,20140208,1
1012,20140125,1
2765,20140125,2
2765,20140201,2
2765,20140208,2
2784,20140207,1
2784,20140221,1
2784,20140228,1
2784,20131220,1
2784,20131224,1
2784,20131227,1
2784,20131231,1
2784,20140103,1
2791,20140205,1
2791,20140206,1
2791,20131204,1
2791,20131205,1
2791,20131209,1
2791,20131210,1
2791,20131211,1
2791,20131212,1
2791,20131216,1
2791,20131217,1
2791,20131218,1
2791,20131219,1
2791,20131223,1
2791,20131224,1
2791,20131226,1
2791,20131230,1
2791,20131231,1
2791,20140102,1
2791,20140106,1
2791,20140107,1
2791,20140108,1
2791,20140109,1
2791,20140113,1
2791,20140114,1
2791,20140115,1
2791,20140116,1
2791,20140210,1
2791,20140211,1
2791,20140212,1
2791,20140213,1
2791,20140217,1
2791,20140218,1
2791,20140219,1
2791,20140220,1
2791,20140224,1
2791,20140225,1
2791,20140226,1
2791,20140227,1
2791,20140303,1
2791,20140304,1
2791,20140120,2
2791,20140121,2
2791,20140123,2
2791,20140127,2
2791,20140128,2
2791,20140130,2
2791,20131225,2
2791,20140101,2
2785,20140106,1
2785,20140107,1
2785,20140108,1
2785,20140109,1
2785,20140113,1
2785,20140114,1
2785,20140115,1
2785,20140116,1
2785,20140217,1
2785,20140218,1
2785,20140219,1
2785,20140220,1
2785,20140224,1
2785,20140225,1
2785,20140226,1
2785,20140227,1
2785,20140303,1
2785,20140304,1
2785,20140205,1
2785,20131223,1
2785,20131226,1
2785,20131230,1
2785,20140102,1
2785,20140206,1
2785,20140203,2
2758,20131216,1
2758,20131217,1
2758,20131218,1
2758,20131219,1
2758,20131220,1
2758,20140106,1
2758,20140107,1
2758,20140108,1
2758,20140109,1
2758,20140110,1
2758,20140113,1
2758,20140114,1
2758,20140115,1
2758,20140116,1
2758,20140117,1
2758,20131223,1
2758,20131224,1
2758,20131226,1
2758,20131227,1
2758,20131230,1
2758,20131231,1
2758,20140102,1
2758,20140103,1
2758,20140203,2
2758,20140204,2
2793,20131225,1
2793,20140101,1
2793,20140201,2
2793,20140202,2
2793,20140208,2
2793,20140209,2
2763,20140125,2
2763,20140201,2
2763,20140208,2
2764,20140202,2
2764,20140203,2
2764,20140204,2
2764,20140205,2
2764,20140206,2
2764,20140207,2
2764,20140210,2
2764,20140211,2
2764,20140212,2
2764,20140213,2
2764,20140214,2
2760,20131225,2
2760,20140101,2
2773,20131216,1
2773,20131217,1
2773,20131218,1
2773,20131219,1
2773,20140106,1
2773,20140107,1
2773,20140108,1
2773,20140109,1
2773,20131223,1
2773,20131226,1
2773,20131230,1
2773,20140102,1
2775,20140110,1
2775,20140111,1
2775,20131220,1
2775,20131221,1
2775,20131224,1
2775,20131227,1
2775,20131228,1
2775,20131231,1
2775,20140103,1
2775,20140104,1
2774,20140118,1
2783,20131216,1
2783,20131217,1
2783,20131218,1
2783,20131219,1
2783,20140106,1
2783,20140107,1
2783,20140108,1
2783,20140109,1
2783,20131223,1
2783,20131226,1
2783,20131230,1
2783,20140102,1
2518,20140303,1
2782,20140110,1
2782,20140214,1
2782,20140221,1
2788,20131206,1
2788,20131213,1
2788,20131220,1
2788,20140110,1
2788,20131224,1
2788,20131227,1
2788,20131231,1
2788,20140103,1
2235,20140302,1
2840,20140126,2
2840,20140202,2
2840,20140209,2
2830,20140205,1
2830,20140206,1
2830,20140207,1
2830,20140210,1
2830,20140211,1
2830,20140212,1
2830,20140213,1
2830,20140214,1
2830,20140215,1
2830,20140216,1
2830,20140217,1
2830,20140218,1
2830,20140219,1
2830,20140220,1
2830,20140221,1
2830,20140222,1
2830,20140223,1
2830,20140224,1
2830,20140225,1
2830,20140226,1
2830,20140227,1
2830,20140228,1
2830,20140301,1
2830,20140302,1
2830,20140303,1
2830,20140304,1
2830,20140120,2
2830,20140121,2
2830,20140122,2
2830,20140123,2
2830,20140124,2
2830,20140125,2
2830,20140126,2
2830,20140127,2
2830,20140128,2
2830,20140129,2
2830,20140130,2
2830,20140131,2
2830,20140201,2
2830,20140202,2
2821,20140301,2
2821,20140302,2
2818,20140205,1
2818,20140206,1
2818,20140207,1
2818,20140210,1
2818,20140211,1
2818,20140212,1
2818,20140213,1
2818,20140214,1
2818,20140215,1
2818,20140120,2
2818,20140121,2
2818,20140122,2
2818,20140123,2
2818,20140124,2
2818,20140125,2
2818,20140127,2
2818,20140128,2
2818,20140129,2
2818,20140130,2
2818,20140131,2
2818,20140201,2
2834,20131208,1
2835,20140205,1
2835,20140206,1
2835,20140207,1
2835,20140210,1
2835,20140211,1
2835,20140212,1
2835,20140213,1
2835,20140214,1
2835,20140216,1
2835,20140120,2
2835,20140121,2
2835,20140122,2
2835,20140123,2
2835,20140124,2
2835,20140126,2
2835,20140127,2
2835,20140128,2
2835,20140129,2
2835,20140130,2
2835,20140131,2
2835,20140202,2
2822,20140205,1
2822,20140206,1
2822,20140207,1
2822,20140215,1
2822,20140216,1
2822,20140301,1
2822,20140302,1
2826,20140126,2
2826,20140202,2
2826,20140209,2
2827,20140223,1
2842,20140120,2
2842,20140121,2
2842,20140122,2
2842,20140123,2
2842,20140124,2
2842,20140125,2
2842,20140126,2
2842,20140127,2
2842,20140128,2
2842,20140129,2
2842,20140130,2
2842,20140131,2
2842,20140201,2
2842,20140202,2
2842,20140203,2
2842,20140204,2
2842,20140205,2
2842,20140206,2
2842,20140207,2
2842,20140208,2
2842,20140209,2
1417,20140303,1
2799,20140204,1
2800,20140107,1
2800,20140108,1
2800,20140109,1
2800,20140110,1
2800,20140114,1
2800,20140115,1
2800,20140116,1
2800,20140117,1
2800,20140205,1
2800,20140206,1
2800,20140207,1
2800,20140211,1
2800,20140212,1
2800,20140213,1
2800,20140214,1
2800,20131224,1
2800,20131226,1
2800,20131227,1
2800,20131231,1
2800,20140102,1
2800,20140103,1
2800,20140204,2
2811,20140125,2
2811,20140201,2
2811,20140208,2
2814,20140303,1
2815,20140303,2
2816,20140205,1
2816,20140206,1
2816,20140207,1
2816,20140210,1
2816,20140211,1
2816,20140212,1
2816,20140213,1
2816,20140214,1
2816,20140215,1
2816,20140216,1
2816,20140120,2
2816,20140121,2
2816,20140122,2
2816,20140123,2
2816,20140124,2
2816,20140125,2
2816,20140126,2
2816,20140127,2
2816,20140128,2
2816,20140129,2
2816,20140130,2
2816,20140131,2
2816,20140201,2
2816,20140202,2
2807,20140106,1
2807,20140107,1
2807,20140108,1
2807,20140109,1
2807,20140110,1
2807,20140113,1
2807,20140114,1
2807,20140115,1
2807,20140116,1
2807,20140117,1
2807,20140205,1
2807,20140206,1
2807,20140207,1
2807,20140210,1
2807,20140211,1
2807,20140212,1
2807,20140213,1
2807,20140214,1
2807,20131223,1
2807,20131224,1
2807,20131226,1
2807,20131227,1
2807,20131230,1
2807,20131231,1
2807,20140102,1
2807,20140103,1
2807,20140203,2
2807,20140204,2
2796,20140120,2
2796,20140127,2
2796,20140203,2
2820,20140221,1
2828,20131225,2
2828,20140101,2
2801,20140303,1
2803,20131225,2
2803,20140101,2
2837,20140303,1
2824,20131225,2
2824,20140101,2
5775,20131209,1
5783,20131224,2
5783,20131225,2
5783,20131231,2
5783,20140101,2
5774,20140117,2
5774,20131225,2
5774,20140101,2
5781,20131209,1
5781,20131211,2
5781,20131212,2
5781,20131213,2
5782,20131216,1
5782,20131217,1
5782,20131218,1
5782,20131219,1
5782,20131220,1
5782,20131223,1
5782,20131224,1
5782,20131226,1
5782,20131227,1
5782,20131230,1
5782,20131231,1
5782,20140102,1
5782,20140103,1
5782,20140117,2
5780,20131208,1
5780,20131206,2
5790,20131216,1
5790,20131217,1
5790,20131218,1
5790,20131219,1
5790,20131220,1
5790,20131223,1
5790,20131224,1
5790,20131226,1
5790,20131227,1
5790,20131230,1
5790,20131231,1
5790,20140102,1
5790,20140103,1
5790,20140117,2
5789,20131225,1
5789,20140101,1
5792,20140201,1
5794,20131225,2
5794,20140101,2
5798,20140101,2
5798,20131220,2
5798,20131225,2
5798,20131227,2
5800,20140213,1
5800,20140214,1
5806,20140204,2
5806,20140205,2
5806,20140206,2
5806,20140207,2
5806,20140209,2
5805,20140210,1
5805,20140211,1
5805,20140212,1
5805,20140213,1
5805,20140214,1
5805,20140215,1
5805,20140217,1
5805,20140218,1
5805,20140219,1
5805,20140220,1
5805,20140221,1
5805,20140222,1
5805,20140224,1
5805,20140225,1
5805,20140226,1
5805,20140227,1
5805,20140228,1
5805,20140301,1
5805,20140303,1
5805,20140304,1
5805,20140204,2
5805,20140206,2
5805,20140207,2
5805,20131225,2
5805,20140101,2
5803,20140210,1
5803,20140211,1
5803,20140212,1
5803,20140213,1
5803,20140214,1
5803,20140217,1
5803,20140218,1
5803,20140219,1
5803,20140220,1
5803,20140221,1
5803,20140224,1
5803,20140225,1
5803,20140226,1
5803,20140227,1
5803,20140228,1
5803,20140303,1
5803,20140304,1
5803,20140204,2
5803,20140206,2
5803,20140207,2
5803,20131225,2
5803,20140101,2
5814,20131225,1
5814,20140101,1
5819,20131225,2
5819,20140101,2
5816,20131225,1
5816,20140101,1
5815,20131204,1
5815,20131205,1
5815,20131206,1
5815,20131209,1
5815,20131210,1
5815,20131211,1
5815,20131212,1
5815,20131213,1
5815,20131216,1
5815,20131217,1
5815,20131218,1
5815,20131219,1
5815,20131220,1
5815,20140303,1
5815,20140304,1
5815,20131223,1
5815,20131224,1
5815,20131226,1
5815,20131227,1
5815,20131230,1
5815,20131231,1
5815,20140102,1
5815,20140103,1
5817,20131216,1
5817,20131217,1
5817,20131218,1
5817,20131219,1
5817,20131220,1
5817,20131223,1
5817,20131224,1
5817,20131226,1
5817,20131227,1
5817,20131230,1
5817,20131231,1
5817,20140102,1
5817,20140103,1
5817,20140106,1
5817,20140107,1
5817,20140108,1
5817,20140109,1
5817,20140110,1
5817,20140113,1
5817,20140114,1
5817,20140115,1
5817,20140116,1
5817,20140117,1
5817,20140120,1
5817,20140121,1
5817,20140122,1
5817,20140123,1
5817,20140124,1
5817,20140127,1
5817,20140128,1
5817,20140129,1
5817,20140130,1
5817,20140131,1
5817,20140203,1
5817,20140204,1
5817,20140205,1
5817,20140206,1
5817,20140207,1
5817,20140217,1
5817,20140218,1
5817,20140219,1
5817,20140220,1
5817,20140221,1
5817,20140224,1
5817,20140225,1
5817,20140226,1
5817,20140227,1
5817,20140228,1
5817,20140303,1
5817,20140304,1
5817,20140210,2
5817,20140211,2
5817,20140213,2
5817,20140214,2
5817,20131225,2
5817,20140101,2
5810,20140208,2
5810,20131225,2
5810,20140101,2
5812,20131225,1
5812,20140101,1
5818,20140204,2
5818,20140205,2
5818,20140206,2
5818,20140207,2
5807,20131216,1
5807,20131217,1
5807,20131218,1
5807,20131219,1
5807,20131220,1
5807,20140303,1
5807,20140304,1
5807,20131223,1
5807,20131224,1
5807,20131226,1
5807,20131227,1
5807,20131230,1
5807,20131231,1
5807,20140102,1
5807,20140103,1
5809,20131225,1
5809,20140101,1
5809,20140208,2
5809,20140209,2
5808,20140204,2
5808,20140205,2
5808,20140206,2
5808,20140207,2
5821,20140112,2
5821,20140209,2
5820,20131208,1
5822,20131225,1
5822,20140101,1
5825,20131214,1
5825,20131218,1
5825,20131207,1
5825,20131208,1
5825,20131204,1
5825,20131205,1
5825,20131206,1
5825,20131209,1
5825,20131210,1
5825,20131211,1
5825,20131212,1
5825,20131213,1
5825,20131223,2
5825,20131225,2
5825,20131227,2
5825,20131230,2
5825,20140101,2
5825,20140103,2
5832,20131216,2
5832,20131217,2
5832,20131218,2
5832,20131219,2
5832,20140201,2
5109,20140201,2
5857,20131225,2
5857,20140101,2
618,20140301,1
5853,20131225,2
5852,20131225,2
5852,20140101,2
5835,20131225,2
5835,20140101,2
5839,20131225,2
5839,20140101,2
5851,20131224,1
5851,20131231,1
5843,20131230,2
5843,20131231,2
5843,20131223,2
5843,20131224,2
5843,20131226,2
5843,20131227,2
5842,20131208,1
1272,20131225,2
1272,20140101,2
5860,20131225,1
5860,20140101,1
5861,20140304,1
5861,20131223,1
5861,20131226,1
5861,20131230,1
5861,20140102,1
5861,20131216,1
5861,20131217,1
5861,20131218,1
5861,20131219,1
5861,20140106,1
5861,20140107,1
5861,20140108,1
5861,20140109,1
5861,20140113,1
5861,20140114,1
5861,20140115,1
5861,20140116,1
5861,20140120,1
5861,20140121,1
5861,20140122,1
5861,20140123,1
5861,20140127,1
5861,20140128,1
5861,20140129,1
5861,20140130,1
5861,20140203,1
5861,20140204,1
5861,20140205,1
5861,20140206,1
5861,20140210,1
5861,20140211,1
5861,20140212,1
5861,20140213,1
5861,20140217,2
5861,20140220,2
5861,20140224,2
5861,20140227,2
5861,20131224,2
5861,20131225,2
5861,20131231,2
5861,20140101,2
5847,20140303,1
5847,20140304,1
5847,20140117,1
5847,20140118,1
5847,20140119,1
5847,20131204,1
5847,20131205,1
5847,20131206,1
5847,20131207,1
5847,20131208,1
5847,20131209,1
5847,20131210,1
5847,20131211,1
5847,20131212,1
5847,20131213,1
5847,20131214,1
5847,20131215,1
5847,20131216,1
5847,20131217,1
5847,20131218,1
5847,20131219,1
5847,20131220,1
5847,20131221,1
5847,20131222,1
5847,20131223,1
5847,20131224,1
5847,20131225,1
5847,20131226,1
5847,20131227,1
5847,20131228,1
5847,20131229,1
5847,20131230,1
5847,20131231,1
5847,20140101,1
5847,20140102,1
5847,20140103,1
5847,20140104,1
5847,20140105,1
5847,20140106,1
5847,20140107,1
5847,20140108,1
5847,20140109,1
5847,20140110,1
5847,20140111,1
5847,20140112,1
5847,20140120,1
5847,20140121,1
5847,20140122,1
5847,20140123,1
5847,20140124,1
5847,20140125,1
5847,20140126,1
5847,20140127,1
5847,20140128,1
5847,20140129,1
5847,20140130,1
5847,20140131,1
5847,20140201,1
5847,20140202,1
5847,20140203,1
5847,20140204,1
5847,20140205,1
5847,20140206,1
5847,20140207,1
5847,20140208,1
5847,20140209,1
5847,20140210,1
5847,20140211,1
5847,20140212,1
5847,20140213,1
5847,20140214,1
5847,20140215,1
5847,20140216,1
5847,20140228,1
5847,20140301,1
5847,20140302,1
5847,20140221,2
5847,20140222,2
5847,20140223,2
5847,20140113,2
5847,20140114,2
5847,20140115,2
5847,20140116,2
5847,20140224,2
5847,20140225,2
5847,20140226,2
5847,20140227,2
5849,20131224,1
5849,20131231,1
5844,20140303,1
5844,20140304,1
5844,20140118,1
5844,20140119,1
5844,20131204,1
5844,20131205,1
5844,20131206,1
5844,20131207,1
5844,20131208,1
5844,20131209,1
5844,20131210,1
5844,20131211,1
5844,20131212,1
5844,20131213,1
5844,20131214,1
5844,20131215,1
5844,20131216,1
5844,20131217,1
5844,20131218,1
5844,20131219,1
5844,20131220,1
5844,20131221,1
5844,20131222,1
5844,20131223,1
5844,20131224,1
5844,20131225,1
5844,20131226,1
5844,20131227,1
5844,20131228,1
5844,20131229,1
5844,20131230,1
5844,20131231,1
5844,20140101,1
5844,20140102,1
5844,20140103,1
5844,20140104,1
5844,20140105,1
5844,20140106,1
5844,20140107,1
5844,20140108,1
5844,20140109,1
5844,20140110,1
5844,20140111,1
5844,20140112,1
5844,20140120,1
5844,20140121,1
5844,20140122,1
5844,20140123,1
5844,20140124,1
5844,20140125,1
5844,20140126,1
5844,20140127,1
5844,20140128,1
5844,20140129,1
5844,20140130,1
5844,20140131,1
5844,20140201,1
5844,20140202,1
5844,20140203,1
5844,20140204,1
5844,20140205,1
5844,20140206,1
5844,20140207,1
5844,20140208,1
5844,20140209,1
5844,20140210,1
5844,20140211,1
5844,20140212,1
5844,20140213,1
5844,20140214,1
5844,20140215,1
5844,20140216,1
5844,20140301,1
5844,20140302,1
5844,20140222,2
5844,20140223,2
5844,20140113,2
5844,20140114,2
5844,20140115,2
5844,20140116,2
5844,20140117,2
5844,20140224,2
5844,20140225,2
5844,20140226,2
5844,20140227,2
5844,20140228,2
5838,20131230,2
5838,20131231,2
5838,20140101,2
5838,20131223,2
5838,20131224,2
5838,20131225,2
5838,20131226,2
5838,20131227,2
5855,20131224,1
5855,20131231,1
5837,20131208,1
5845,20131216,1
5845,20131217,1
5845,20131218,1
5845,20131219,1
5845,20131220,1
5845,20140106,1
5845,20140107,1
5845,20140108,1
5845,20140109,1
5845,20140110,1
5845,20140221,1
5845,20140303,1
5845,20140304,1
5845,20131223,1
5845,20131224,1
5845,20131226,1
5845,20131227,1
5845,20131230,1
5845,20131231,1
5845,20140102,1
5845,20140103,1
565,20131225,1
565,20140101,1
5856,20131225,2
5867,20131206,1
798,20131208,1
1278,20131225,2
1278,20140101,2
3350,20131225,1
3350,20140101,1
727,20140222,1
